Solver command line: ['C:\\Program Files\\IBM\\ILOG\\CPLEX_Studio1210\\cplex\\bin\\x64_win64\\cplex.exe']


Welcome to IBM(R) ILOG(R) CPLEX(R) Interactive Optimizer 12.10.0.0
  with Simplex, Mixed Integer & Barrier Optimizers
5725-A06 5725-A29 5724-Y48 5724-Y49 5724-Y54 5724-Y55 5655-Y21
Copyright IBM Corp. 1988, 2019.  All Rights Reserved.

Type 'help' for a list of available commands.
Type 'help' followed by a command name for more
information on commands.

CPLEX> Logfile 'cplex.log' closed.
Logfile 'pyomo_log.log' open.
CPLEX> Problem 'C:\Users\Joris\AppData\Local\Temp\tmp92a6qq5n.pyomo.lp' read.
Read time = 0.00 sec. (0.01 ticks)
CPLEX> Problem name         : C:\Users\Joris\AppData\Local\Temp\tmp92a6qq5n.pyomo.lp
Objective sense      : Maximize
Variables            :     114  [Nneg: 106,  Free: 3,  General Integer: 5]
Objective nonzeros   :       1
Linear constraints   :     106  [Greater: 1,  Equal: 105]
  Nonzeros           :     646
  RHS nonzeros       :       2

Variables            : Min LB: 0.000000         Max UB: all infinite   
Objective nonzeros   : Min   : 1.000000         Max   : 1.000000       
Linear constraints   :
  Nonzeros           : Min   : 0.0004272680     Max   : 2444.353       
  RHS nonzeros       : Min   : 1.000000         Max   : 1.000000       
CPLEX> Version identifier: 12.10.0.0 | 2019-11-26 | 843d4de2ae
Tried aggregator 1 time.
MIP Presolve eliminated 106 rows and 114 columns.
All rows and columns eliminated.
Presolve time = 0.00 sec. (0.10 ticks)

Root node processing (before b&c):
  Real time             =    0.00 sec. (0.13 ticks)
Parallel b&c, 8 threads:
  Real time             =    0.00 sec. (0.00 ticks)
  Sync time (average)   =    0.00 sec.
  Wait time (average)   =    0.00 sec.
                          ------------
Total (root+branch&cut) =    0.00 sec. (0.13 ticks)

Solution pool: 1 solution saved.

MIP - Integer optimal solution:  Objective =  1.4626102541e+02
Solution time =    0.00 sec.  Iterations = 0  Nodes = 0
Deterministic time = 0.13 ticks  (127.65 ticks/sec)

CPLEX> Incumbent solution written to file 'C:\Users\Joris\AppData\Local\Temp\tmppzznd_t_.cplex.sol'.
CPLEX> 
